Geographic Exponential Decay
20 205 112 221 106 138 134 220 187 302 85 211 11 150 50 143 7 155 262 296 88
p edge 320 319
e 0 282 2.0
e 1 234 5.0
e 1 0 1.0
e 2 267 4.0
e 2 1 1.0
e 3 314 1.0
e 3 2 1.0
e 4 99 2.0
e 4 3 1.0
e 5 104 3.0
e 5 4 1.0
e 6 289 1.0
e 6 5 4.0
e 7 131 64.0
e 7 13 31.0
e 7 157 5.0
e 7 256 54.0
e 7 225 41.0
e 7 6 55.0
e 8 214 2.0
e 8 7 58.0
e 9 106 91.0
e 9 8 5.0
e 10 188 4.0
e 10 9 1.0
e 11 34 97.0
e 11 208 87.0
e 11 150 84.0
e 11 155 78.0
e 11 307 84.0
e 11 10 51.0
e 12 250 1.0
e 12 11 98.0
e 14 255 2.0
e 14 12 3.0
e 15 124 1.0
e 15 14 1.0
e 16 70 1.0
e 16 15 1.0
e 17 23 4.0
e 17 16 2.0
e 18 258 1.0
e 18 17 1.0
e 19 229 2.0
e 19 18 5.0
e 20 206 1.0
e 20 19 2.0
e 21 173 1.0
e 21 20 6.0
e 22 100 3.0
e 22 21 2.0
e 24 71 1.0
e 24 22 1.0
e 25 179 2.0
e 25 24 2.0
e 26 106 58.0
e 27 231 2.0
e 27 25 1.0
e 28 105 1.0
e 28 27 1.0
e 29 175 7.0
e 29 28 1.0
e 30 274 3.0
e 30 29 1.0
e 31 200 2.0
e 31 30 2.0
e 32 316 1.0
e 32 31 4.0
e 33 93 4.0
e 33 32 3.0
e 35 317 3.0
e 35 33 2.0
e 36 86 1.0
e 36 35 1.0
e 37 297 11.0
e 37 36 1.0
e 38 106 18.0
e 39 276 2.0
e 39 37 1.0
e 40 288 1.0
e 40 39 6.0
e 41 51 4.0
e 41 40 4.0
e 42 262 4.0
e 42 41 4.0
e 43 130 1.0
e 43 42 1.0
e 44 219 5.0
e 44 43 5.0
e 45 300 4.0
e 45 44 1.0
e 46 90 1.0
e 46 45 2.0
e 47 161 2.0
e 47 46 1.0
e 48 242 3.0
e 48 47 2.0
e 49 215 4.0
e 49 48 9.0
e 50 216 63.0
e 50 125 64.0
e 50 290 53.0
e 50 52 89.0
e 50 233 31.0
e 50 49 16.0
e 53 299 3.0
e 53 50 100.0
e 54 318 1.0
e 54 53 5.0
e 55 91 2.0
e 55 54 1.0
e 56 94 8.0
e 56 55 1.0
e 57 73 7.0
e 57 56 3.0
e 58 59 1.0
e 58 57 4.0
e 60 182 3.0
e 60 58 3.0
e 61 209 5.0
e 61 60 2.0
e 62 123 4.0
e 62 61 5.0
e 63 193 1.0
e 63 62 1.0
e 64 213 2.0
e 64 63 1.0
e 65 241 11.0
e 65 230 38.0
e 65 277 12.0
e 65 64 21.0
e 66 235 3.0
e 66 65 47.0
e 67 198 1.0
e 67 66 1.0
e 68 171 34.0
e 68 251 28.0
e 68 236 16.0
e 68 67 19.0
e 69 92 1.0
e 69 68 1.0
e 72 315 2.0
e 72 69 2.0
e 74 257 4.0
e 74 72 12.0
e 75 226 3.0
e 75 74 10.0
e 76 132 16.0
e 76 75 5.0
e 77 103 1.0
e 77 76 1.0
e 78 79 10.0
e 78 77 4.0
e 80 302 35.0
e 80 78 1.0
e 81 82 2.0
e 81 80 1.0
e 83 84 2.0
e 83 81 1.0
e 85 106 36.0
e 85 87 97.0
e 85 139 80.0
e 85 205 71.0
e 85 271 76.0
e 88 301 67.0
e 88 185 77.0
e 88 89 73.0
e 88 252 15.0
e 88 95 8.0
e 88 83 64.0
e 96 97 6.0
e 96 88 88.0
e 98 310 1.0
e 98 96 1.0
e 101 102 1.0
e 101 98 1.0
e 106 183 5.0
e 107 128 3.0
e 107 101 6.0
e 108 109 2.0
e 108 107 1.0
e 110 133 1.0
e 110 108 3.0
e 111 112 52.0
e 111 110 2.0
e 112 113 60.0
e 112 220 86.0
e 112 114 19.0
e 112 201 40.0
e 115 211 98.0
e 116 210 2.0
e 116 111 1.0
e 117 118 3.0
e 117 116 4.0
e 119 304 3.0
e 119 117 1.0
e 120 237 2.0
e 120 119 2.0
e 121 122 2.0
e 121 120 2.0
e 126 148 2.0
e 126 121 1.0
e 127 129 1.0
e 127 126 1.0
e 132 199 2.0
e 134 295 95.0
e 134 291 89.0
e 134 178 95.0
e 134 135 96.0
e 134 283 21.0
e 134 127 21.0
e 136 137 4.0
e 136 134 30.0
e 138 140 91.0
e 138 238 81.0
e 138 223 77.0
e 138 239 61.0
e 138 259 79.0
e 138 136 91.0
e 141 142 2.0
e 141 138 84.0
e 143 302 69.0
e 143 144 33.0
e 143 145 37.0
e 143 176 8.0
e 143 311 69.0
e 146 165 5.0
e 146 141 6.0
e 147 292 1.0
e 147 146 2.0
e 149 150 75.0
e 150 319 97.0
e 150 284 37.0
e 150 151 20.0
e 152 153 1.0
e 152 147 2.0
e 154 155 73.0
e 155 247 35.0
e 155 156 9.0
e 155 158 8.0
e 158 180 11.0
e 159 232 2.0
e 159 152 1.0
e 160 162 3.0
e 160 159 2.0
e 163 164 7.0
e 163 260 1.0
e 163 160 4.0
e 166 167 3.0
e 166 163 5.0
e 168 196 2.0
e 168 166 1.0
e 169 170 1.0
e 169 168 3.0
e 172 174 2.0
e 172 169 1.0
e 177 181 9.0
e 177 172 1.0
e 184 186 4.0
e 184 177 9.0
e 187 189 91.0
e 187 190 48.0
e 187 224 89.0
e 187 240 47.0
e 187 302 97.0
e 191 192 13.0
e 191 305 11.0
e 191 184 18.0
e 194 195 7.0
e 194 191 11.0
e 197 253 5.0
e 197 194 3.0
e 202 203 5.0
e 202 243 7.0
e 202 197 6.0
e 204 281 17.0
e 204 202 9.0
e 205 207 32.0
e 205 211 97.0
e 205 261 68.0
e 205 212 93.0
e 211 217 63.0
e 211 244 95.0
e 211 218 26.0
e 220 221 13.0
e 220 222 99.0
e 220 278 4.0
e 220 245 79.0
e 221 227 65.0
e 221 308 99.0
e 221 228 34.0
e 221 246 56.0
e 248 249 1.0
e 248 204 4.0
e 254 262 25.0
e 262 263 85.0
e 262 264 77.0
e 262 265 53.0
e 266 268 1.0
e 266 248 12.0
e 269 270 1.0
e 269 266 3.0
e 272 273 1.0
e 272 269 6.0
e 275 279 6.0
e 275 272 2.0
e 280 281 6.0
e 285 286 3.0
e 285 275 3.0
e 287 293 10.0
e 287 285 1.0
e 294 296 17.0
e 296 298 40.0
e 296 302 46.0
e 296 303 91.0
e 296 306 66.0
e 302 309 27.0
e 312 313 1.0
e 312 287 3.0
